79
3 57 23 84 
3 42 13 6 
1 105 
3 28 20 92 
1 65 
2 30 109 
1 73 
1 16 
2 79 116 
3 50 83 97 
2 111 100 
3 39 32 98 
3 11 26 24 
1 101 
1 27 
2 10 7 
3 47 74 60 
2 22 1 
1 37 
2 34 55 
2 82 91 
1 93 
2 99 52 
1 77 
1 85 
1 102 
1 14 
3 68 75 87 
3 107 106 78 
1 48 
2 54 94 
1 19 
3 119 5 90 
3 44 29 113 
2 17 8 
1 2 
1 89 
1 15 
1 86 
3 3 96 72 
2 61 76 
1 51 
1 36 
1 12 
1 25 
1 81 
1 35 
3 67 95 71 
1 120 
1 53 
3 41 40 110 
1 114 
1 4 
2 9 112 
1 66 
1 31 
2 118 70 
1 21 
1 103 
1 58 
1 88 
1 115 
1 33 
1 104 
1 18 
1 108 
1 63 
1 38 
1 43 
1 62 
1 80 
1 59 
1 69 
1 117 
1 45 
1 46 
1 49 
1 64 
1 56 
